SCIP version 5.0.0 [precision: 8 byte] [memory: block] [mode: optimized] [LP solver: NONE] [GitHash: 3bbd232]
Copyright (C) 2002-2017 Konrad-Zuse-Zentrum fuer Informationstechnik Berlin (ZIB)

External codes: 
  Readline EditLine w  GNU library for command line editing (gnu.org/s/readline)
  CppAD 20160000.1     Algorithmic Differentiation of C++ algorithms developed by B. Bell (www.coin-or.org/CppAD)
  ZLIB 1.2.5           General purpose compression library by J. Gailly and M. Adler (zlib.net)
  GMP 6.1.2            GNU Multiple Precision Arithmetic Library developed by T. Granlund (gmplib.org)

user parameter file <scip.set> not found - using default parameters

read problem <../../Split_data/output/seismic-bumps/9/1_sample_seismic-bumps.logreg>
============

File name	:	../../Split_data/output/seismic-bumps/9/1_sample_seismic-bumps.logreg
Problem name 	:	1_sample_seismic-bumps
Number of data	:	2068
Number of var	:	21
The given data has linear dependence
4 sets of column vector are linearly dependent:
{ 2 3}, { 4 5 6}, { 7 8}, { 13 14 15}, 

[dim=1] time: 0.035201
[dim=2] time: 0.074235
[dim=3] time: 0.106555
[dim=4] time: 0.135888
[dim=5] time: 0.165939
[dim=6] time: 0.193851
[dim=7] time: 0.209929
[dim=8] time: 0.225592
[dim=9] Time of forward = 0.23937sec.
AIC: 853.267
k: 8

[dim=17] time: 0.074763
[dim=16] time: 0.109036
[dim=15] time: 0.137826
[dim=14] time: 0.163839
[dim=13] time: 0.187772
[dim=12] time: 0.212669
[dim=11] time: 0.247984
[dim=10] time: 0.27753
[dim=9] time: 0.29229
[dim=8] Time of backward = 0.302014sec.
AIC: 855.778
k: 9
